39
Coordinates from ORCA-job posner_ml350_neutral_opt_20260507_r6_seeded E -9954.015112995519
  Ca          0.45187405793149     -0.68181681657250      0.54515986138353
  Ca          1.72189233463328      2.24194177741566      2.05322557427577
  Ca         -0.45912812460516      4.63995922177789      0.55719741115291
  Ca         -2.74281035596301     -0.37726423198775      1.52518825914979
  Ca          4.28736393259573     -1.96010355519390     -0.06956700277459
  Ca         -1.44017072686685      1.98082418050169     -1.58098402151015
  Ca         -1.02737579800253     -2.66420367873245     -1.57537317842877
  Ca          2.67236665071231      0.63808438023752     -1.82634812174978
  Ca         -4.39527892195182     -2.75866130408084     -0.49175824397443
  P           3.87898616686039      0.46732192765294      1.21991053778169
  P           1.26250802071477      3.10265856284312     -1.16207105202741
  P          -1.39834792479411      2.24938323074966      1.90296324831476
  P          -3.15913647712873     -0.32862022790512     -1.48997301669042
  P          -2.16738902377325     -3.37941341098869      1.22540026333094
  P           1.85207848613576     -2.29053488130466     -1.63954212082789
  O           4.03291662227296      1.79392758935395      1.94352988667173
  O           4.31528330174464      0.39709553551132     -0.29882474565193
  O           2.30698533138906      0.30409297645241      1.11522454438900
  O           4.47939880854080     -0.79979227687623      1.83001452533820
  O           2.46495522841967      3.01330116173295     -2.06406020074552
  O           0.73495249957057      1.63103722836093     -1.01253157675986
  O           0.01359328688047      3.93353239254779     -1.61427867818632
  O           1.54283112958875      3.66365923547236      0.28216595472794
  O          -0.51842051094961      3.38807710068577      2.51134194891394
  O          -0.43616255132506      1.03039077357931      1.73881917958159
  O          -1.77471772545645      2.84074792078180      0.48433230844087
  O          -2.64448671809703      1.73996000155999      2.58773192770214
  O          -3.28633530340260      0.86928625120497     -2.40556981116302
  O          -1.79481508876995     -0.14892796900873     -0.71078373370252
  O          -3.10921219924412     -1.72757166695292     -2.17533702339212
  O          -4.23829456978266     -0.46757430579903     -0.37274225917195
  O          -3.50095757598004     -2.55925474039495      1.55067259218969
  O          -1.78697069664196     -4.41520190873930      2.19239569989830
  O          -1.12420301661003     -2.20882410396402      0.98780408974787
  O          -2.47127359964463     -3.86639137647355     -0.26375347480067
  O           1.09838536614762     -3.42977224479245     -2.28962596792054
  O           0.87375451725803     -1.04680056470530     -1.69632364640692
  O           3.21546110850998     -1.79320193763968     -2.19790505194081
  O           2.11240400908334     -2.51348775631002     -0.11572486516507
